column=10;
row=10;
Board=[|3,0,0,2,7,8,0,9,0,0|0,0,3,8,0,10,5,0,0,9|0,0,0,0,0,3,0,5,9,0|0,0,0,10,0,1,7,0,0,0|6,10,8,9,0,0,1,0,3,4|7,0,9,4,2,5,3,0,10,6|4,0,5,0,6,2,8,0,0,0|2,0,0,0,10,0,0,0,0,0|10,2,0,0,0,0,0,0,5,3|0,7,0,0,3,0,0,10,4,0|];
horizontal=[|1,1,2,0,0,0,1,2,0|1,2,1,0,1,2,0,0,0|0,2,1,0,0,0,0,0,0|2,1,0,0,2,0,2,1,2|0,0,1,2,0,0,0,0,0|0,0,0,0,0,0,1,1,2|0,2,0,1,2,0,0,0,0|0,0,1,0,0,0,0,2,0|2,1,2,0,0,0,0,1,2|0,0,1,2,1,0,0,2,0|];
vertical=[|2,0,0,0,2,0,1,0,0,0|1,2,2,0,0,2,0,0,1,0|0,0,0,0,1,2,0,1,0,2|1,1,0,0,0,1,0,0,2,0|0,0,0,2,2,2,0,1,1,0|0,1,2,2,1,2,0,0,2,0|2,2,1,1,1,1,1,0,0,0|1,0,0,0,0,0,0,1,0,2|0,0,0,0,0,0,2,1,0,0|];
